Test: battleship-14-26-sat.cnf
Options: -no-inverting-opt -sym-var-bump
WARNING: for repeatability, setting FPU to use double precision
============================[ Problem Statistics ]=============================
|                                                                             |
|  Number of symmetries:           17                                         |
|  Number of invertingSyms:         0                                         |
|  Number of variables:           364                                         |
|  Number of clauses:            2562                                         |
|  Parse time:                   0.00 s                                       |
|                                                                             |
============================[ Search Statistics ]==============================
| Conflicts |          ORIGINAL         |          LEARNT          | Progress |
|           |    Vars  Clauses Literals |    Limit  Clauses Lit/Cl |          |
===============================================================================
|       100 |     364     2562     9828 |      939      103    111 |  0.001 % |
|       250 |     364     2562     9828 |     1033      292    111 |  0.001 % |
|       475 |     364     2562     9828 |     1136      590    126 |  0.001 % |
|       812 |     364     2562     9828 |     1250     1020    143 |  0.001 % |
|      1318 |     364     2562     9828 |     1375      940    149 |  0.001 % |
|      2077 |     364     2562     9828 |     1512     1186    135 |  0.001 % |
|      3216 |     364     2562     9828 |     1664      951    136 |  0.001 % |
|      4924 |     364     2562     9828 |     1830     1469    130 |  0.001 % |
|      7486 |     364     2562     9828 |     2013     1608    149 |  0.001 % |
|     11330 |     364     2562     9828 |     2215     1153    150 |  0.001 % |
|     17096 |     364     2562     9828 |     2436     2270    162 |  0.001 % |
|     25745 |     364     2562     9828 |     2680     1517    152 |  0.001 % |
|     38719 |     364     2562     9828 |     2948     2352    160 |  0.001 % |
|     58180 |     364     2562     9828 |     3243     2593    161 |  0.001 % |
|     87372 |     364     2562     9828 |     3567     3306    170 |  0.001 % |
|    131161 |     364     2562     9828 |     3924     2218    162 |  0.001 % |
|    196845 |     364     2562     9828 |     4316     2642    145 |  0.001 % |
|    295371 |     364     2562     9828 |     4748     2683    156 |  0.001 % |
|    443160 |     364     2562     9828 |     5222     3110    147 |  0.001 % |
|    664843 |     364     2562     9828 |     5745     3246    150 |  0.001 % |
|    997368 |     364     2562     9828 |     6319     3599    138 |  0.001 % |
|   1496156 |     364     2562     9828 |     6951     5014    151 |  0.001 % |
===============================================================================
restarts              : 4094
conflicts             : 2166738        (15790 /sec)
symconflicts          : 136332         (994 /sec)
decisions             : 4053426        (0.00 % random) (29539 /sec)
propagations          : 49433314       (360247 /sec)
sympropagations       : 534696         (3897 /sec)
conflict literals     : 344627482      (5.37 % deleted)
literals     : 344627482      (5.37 % deleted)

HEURISTIC USAGES
random                : 0           
activity w/ lookahead : 0           
activity no lookahead : 0           
original sp           : 4053425     
sym count             : 0           

Memory used           : 28.00 MB
CPU time              : 137.221 s

SATISFIABLE
